44
 1 880 20
 2 704 16
 3 528 12
 4 880 20
 5 572 13
 6 704 16
 7 528 12
 8 704 16
 9 220 5
 10 836 19
 11 88 2
 12 616 14
 13 132 3
 14 264 6
 15 792 18
 16 792 18
 17 660 15
 18 220 5
 19 440 10
 20 88 2
 21 396 9
 22 836 19
 23 660 15
 24 308 7
 25 440 10
 26 396 9
 27 352 8
 28 440 10
 29 704 16
 30 176 4
 31 880 20
 32 748 17
 33 396 9
 34 440 10
 35 396 9
 36 44 1
 37 176 4
 38 220 5
 39 484 11
 40 132 3
 41 660 15
 42 88 2
 43 352 8
 44 484 11
616